rcpsp/heur_output_or_constraints/Log=2/heurj60.txt
encoding rcpsp/j60.sm/j6017_3.sm nv: 136136 nc: 359381 enctime: 4.55
encoding rcpsp/j60.sm/j6017_3.sm nv: 31790 nc: 81776 enctime: 0.38
c File: j6017_3.smnaiveor2.wcnf
c optimal
c final solution cost: 77
c CPU time: 15.124968
s OPTIMUM FOUND

c File: j6017_3.smor2.wcnf
c optimal
c final solution cost: 77
c CPU time: 11.399494
s OPTIMUM FOUND


rcpsp/heur_output_or_constraints/Log=2/heurj60.txt
encoding rcpsp/j60.sm/j6017_4.sm nv: 113526 nc: 279993 enctime: 3.16
encoding rcpsp/j60.sm/j6017_4.sm nv: 25970 nc: 62401 enctime: 0.40
c File: j6017_4.smnaiveor2.wcnf
c optimal
c final solution cost: 57
c CPU time: 0.996797
s OPTIMUM FOUND

c File: j6017_4.smor2.wcnf
c optimal
c final solution cost: 57
c CPU time: 0.086807
s OPTIMUM FOUND


rcpsp/heur_output_or_constraints/Log=2/heurj60.txt
encoding rcpsp/j60.sm/j6017_5.sm nv: 115368 nc: 269282 enctime: 2.76
encoding rcpsp/j60.sm/j6017_5.sm nv: 23826 nc: 54224 enctime: 0.35
c File: j6017_5.smnaiveor2.wcnf
c optimal
c final solution cost: 48
c CPU time: 1.612559
s OPTIMUM FOUND

c File: j6017_5.smor2.wcnf
c optimal
c final solution cost: 48
c CPU time: 1.299304
s OPTIMUM FOUND


rcpsp/heur_output_or_constraints/Log=2/heurj60.txt
encoding rcpsp/j60.sm/j6017_6.sm nv: 123968 nc: 297435 enctime: 3.24
encoding rcpsp/j60.sm/j6017_6.sm nv: 30368 nc: 71310 enctime: 0.45
c File: j6017_6.smnaiveor2.wcnf
c optimal
c final solution cost: 56
c CPU time: 1.524319
s OPTIMUM FOUND

c File: j6017_6.smor2.wcnf
c optimal
c final solution cost: 56
c CPU time: 0.175846
s OPTIMUM FOUND


rcpsp/heur_output_or_constraints/Log=2/heurj60.txt
encoding rcpsp/j60.sm/j6017_7.sm nv: 128880 nc: 337832 enctime: 4.20
encoding rcpsp/j60.sm/j6017_7.sm nv: 33120 nc: 84866 enctime: 0.57
c File: j6017_7.smnaiveor2.wcnf
c optimal
c final solution cost: 77
c CPU time: 3.409817
s OPTIMUM FOUND

c File: j6017_7.smor2.wcnf
c optimal
c final solution cost: 77
c CPU time: 0.278919
s OPTIMUM FOUND


rcpsp/heur_output_or_constraints/Log=2/heurj60.txt
encoding rcpsp/j60.sm/j6017_8.sm nv: 119160 nc: 308418 enctime: 3.71
encoding rcpsp/j60.sm/j6017_8.sm nv: 30600 nc: 77424 enctime: 0.52
c File: j6017_8.smnaiveor2.wcnf
c optimal
c final solution cost: 73
c CPU time: 3.394865
s OPTIMUM FOUND

c File: j6017_8.smor2.wcnf
c optimal
c final solution cost: 73
c CPU time: 1.523255
s OPTIMUM FOUND


rcpsp/heur_output_or_constraints/Log=2/heurj60.txt
encoding rcpsp/j60.sm/j6017_9.sm nv: 112081 nc: 289981 enctime: 3.53
encoding rcpsp/j60.sm/j6017_9.sm nv: 27413 nc: 69161 enctime: 0.33
c File: j6017_9.smnaiveor2.wcnf
c optimal
c final solution cost: 69
c CPU time: 5.296136
s OPTIMUM FOUND

c File: j6017_9.smor2.wcnf
c optimal
c final solution cost: 69
c CPU time: 0.204310
s OPTIMUM FOUND


rcpsp/heur_output_or_constraints/Log=2/heurj60.txt
encoding rcpsp/j60.sm/j601_7.sm nv: 122436 nc: 312195 enctime: 3.59
encoding rcpsp/j60.sm/j601_7.sm nv: 25776 nc: 63795 enctime: 0.42
c File: j601_7.smnaiveor2.wcnf
c optimal
c final solution cost: 62
c CPU time: 5.563990
s OPTIMUM FOUND

c File: j601_7.smor2.wcnf
c optimal
c final solution cost: 62
c CPU time: 0.753074
s OPTIMUM FOUND


rcpsp/heur_output_or_constraints/Log=2/heurj60.txt
encoding rcpsp/j60.sm/j6018_10.sm nv: 173568 nc: 438189 enctime: 5.24
encoding rcpsp/j60.sm/j6018_10.sm nv: 34352 nc: 84297 enctime: 0.56
c File: j6018_10.smnaiveor2.wcnf
c optimal
c final solution cost: 74
c CPU time: 1.458160
s OPTIMUM FOUND

c File: j6018_10.smor2.wcnf
c optimal
c final solution cost: 74
c CPU time: 0.095303
s OPTIMUM FOUND


rcpsp/heur_output_or_constraints/Log=2/heurj60.txt
encoding rcpsp/j60.sm/j6018_1.sm nv: 139527 nc: 342482 enctime: 3.90
encoding rcpsp/j60.sm/j6018_1.sm nv: 25978 nc: 61726 enctime: 0.41
c File: j6018_1.smnaiveor2.wcnf
c optimal
c final solution cost: 58
c CPU time: 1.265682
s OPTIMUM FOUND

c File: j6018_1.smor2.wcnf
c optimal
c final solution cost: 58
c CPU time: 0.102666
s OPTIMUM FOUND


rcpsp/heur_output_or_constraints/Log=2/heurj60.txt
encoding rcpsp/j60.sm/j6018_2.sm nv: 167670 nc: 404105 enctime: 4.62
encoding rcpsp/j60.sm/j6018_2.sm nv: 30618 nc: 71627 enctime: 0.48
c File: j6018_2.smnaiveor2.wcnf
c optimal
c final solution cost: 52
c CPU time: 4.846268
s OPTIMUM FOUND

c File: j6018_2.smor2.wcnf
c optimal
c final solution cost: 52
c CPU time: 0.091683
s OPTIMUM FOUND


rcpsp/heur_output_or_constraints/Log=2/heurj60.txt
encoding rcpsp/j60.sm/j6018_3.sm nv: 138993 nc: 336401 enctime: 3.70
encoding rcpsp/j60.sm/j6018_3.sm nv: 30310 nc: 71596 enctime: 0.46
c File: j6018_3.smnaiveor2.wcnf
c optimal
c final solution cost: 69
c CPU time: 0.946254
s OPTIMUM FOUND

c File: j6018_3.smor2.wcnf
c optimal
c final solution cost: 69
c CPU time: 0.077409
s OPTIMUM FOUND


rcpsp/heur_output_or_constraints/Log=2/heurj60.txt
encoding rcpsp/j60.sm/j6018_4.sm nv: 171308 nc: 429530 enctime: 5.11
encoding rcpsp/j60.sm/j6018_4.sm nv: 30284 nc: 73538 enctime: 0.50
c File: j6018_4.smnaiveor2.wcnf
c optimal
c final solution cost: 54
c CPU time: 1.948023
s OPTIMUM FOUND

c File: j6018_4.smor2.wcnf
c optimal
c final solution cost: 54
c CPU time: 0.158105
s OPTIMUM FOUND


rcpsp/heur_output_or_constraints/Log=2/heurj60.txt
encoding rcpsp/j60.sm/j6018_5.sm nv: 141036 nc: 340032 enctime: 3.75
encoding rcpsp/j60.sm/j6018_5.sm nv: 24528 nc: 57274 enctime: 0.39
c File: j6018_5.smnaiveor2.wcnf
c optimal
c final solution cost: 54
c CPU time: 0.987357
s OPTIMUM FOUND

c File: j6018_5.smor2.wcnf
c optimal
c final solution cost: 54
c CPU time: 0.064279
s OPTIMUM FOUND


rcpsp/heur_output_or_constraints/Log=2/heurj60.txt
encoding rcpsp/j60.sm/j6018_6.sm nv: 155685 nc: 366284 enctime: 4.00
encoding rcpsp/j60.sm/j6018_6.sm nv: 28615 nc: 65508 enctime: 0.43
c File: j6018_6.smnaiveor2.wcnf
c optimal
c final solution cost: 52
c CPU time: 1.098392
s OPTIMUM FOUND

c File: j6018_6.smor2.wcnf
c optimal
c final solution cost: 52
c CPU time: 0.087808
s OPTIMUM FOUND


rcpsp/heur_output_or_constraints/Log=2/heurj60.txt
encoding rcpsp/j60.sm/j6018_7.sm nv: 145820 nc: 346215 enctime: 3.81
encoding rcpsp/j60.sm/j6018_7.sm nv: 33580 nc: 78059 enctime: 0.36
c File: j6018_7.smnaiveor2.wcnf
c optimal
c final solution cost: 63
c CPU time: 1.043055
s OPTIMUM FOUND

c File: j6018_7.smor2.wcnf
c optimal
c final solution cost: 63
c CPU time: 0.119343
s OPTIMUM FOUND


rcpsp/heur_output_or_constraints/Log=2/heurj60.txt
encoding rcpsp/j60.sm/j6018_8.sm nv: 151970 nc: 368950 enctime: 4.16
encoding rcpsp/j60.sm/j6018_8.sm nv: 25935 nc: 60926 enctime: 0.42
c File: j6018_8.smnaiveor2.wcnf
c optimal
c final solution cost: 46
c CPU time: 1.485736
s OPTIMUM FOUND

c File: j6018_8.smor2.wcnf
c optimal
c final solution cost: 46
c CPU time: 0.087779
s OPTIMUM FOUND


rcpsp/heur_output_or_constraints/Log=2/heurj60.txt
encoding rcpsp/j60.sm/j6018_9.sm nv: 138689 nc: 340105 enctime: 3.85
encoding rcpsp/j60.sm/j6018_9.sm nv: 23045 nc: 54445 enctime: 0.37
c File: j6018_9.smnaiveor2.wcnf
c optimal
c final solution cost: 50
c CPU time: 1.115227
s OPTIMUM FOUND

c File: j6018_9.smor2.wcnf
c optimal
c final solution cost: 50
c CPU time: 0.073301
s OPTIMUM FOUND


rcpsp/heur_output_or_constraints/Log=2/heurj60.txt
encoding rcpsp/j60.sm/j601_8.sm nv: 135772 nc: 351467 enctime: 4.03
encoding rcpsp/j60.sm/j601_8.sm nv: 27602 nc: 69297 enctime: 0.44
c File: j601_8.smnaiveor2.wcnf
c optimal
c final solution cost: 63
c CPU time: 2.057242
s OPTIMUM FOUND

c File: j601_8.smor2.wcnf
c optimal
c final solution cost: 63
c CPU time: 0.246332
s OPTIMUM FOUND


rcpsp/heur_output_or_constraints/Log=2/heurj60.txt
encoding rcpsp/j60.sm/j6019_10.sm nv: 188720 nc: 441400 enctime: 4.65
encoding rcpsp/j60.sm/j6019_10.sm nv: 37520 nc: 85810 enctime: 0.54
c File: j6019_10.smnaiveor2.wcnf
c optimal
c final solution cost: 65
c CPU time: 1.058592
s OPTIMUM FOUND

c File: j6019_10.smor2.wcnf
c optimal
c final solution cost: 65
c CPU time: 0.096517
s OPTIMUM FOUND


rcpsp/heur_output_or_constraints/Log=2/heurj60.txt
encoding rcpsp/j60.sm/j6019_1.sm nv: 179958 nc: 419812 enctime: 4.57
encoding rcpsp/j60.sm/j6019_1.sm nv: 28836 nc: 65213 enctime: 0.44
c File: j6019_1.smnaiveor2.wcnf
c optimal
c final solution cost: 53
c CPU time: 1.048794
s OPTIMUM FOUND

c File: j6019_1.smor2.wcnf
c optimal
c final solution cost: 53
c CPU time: 0.059063
s OPTIMUM FOUND


rcpsp/heur_output_or_constraints/Log=2/heurj60.txt
encoding rcpsp/j60.sm/j6019_2.sm nv: 188123 nc: 462255 enctime: 5.38
encoding rcpsp/j60.sm/j6019_2.sm nv: 35928 nc: 85885 enctime: 0.57
c File: j6019_2.smnaiveor2.wcnf
c optimal
c final solution cost: 67
c CPU time: 1.322961
s OPTIMUM FOUND

c File: j6019_2.smor2.wcnf
c optimal
c final solution cost: 67
c CPU time: 0.104436
s OPTIMUM FOUND


rcpsp/heur_output_or_constraints/Log=2/heurj60.txt
encoding rcpsp/j60.sm/j6019_3.sm nv: 163917 nc: 396836 enctime: 4.54
encoding rcpsp/j60.sm/j6019_3.sm nv: 33157 nc: 78196 enctime: 0.51
c File: j6019_3.smnaiveor2.wcnf
c optimal
c final solution cost: 68
c CPU time: 1.101186
s OPTIMUM FOUND

c File: j6019_3.smor2.wcnf
c optimal
c final solution cost: 68
c CPU time: 0.084930
s OPTIMUM FOUND


rcpsp/heur_output_or_constraints/Log=2/heurj60.txt
encoding rcpsp/j60.sm/j6019_4.sm nv: 186296 nc: 422928 enctime: 4.34
encoding rcpsp/j60.sm/j6019_4.sm nv: 31536 nc: 69683 enctime: 0.45
c File: j6019_4.smnaiveor2.wcnf
c optimal
c final solution cost: 51
c CPU time: 1.193599
s OPTIMUM FOUND

c File: j6019_4.smor2.wcnf
c optimal
c final solution cost: 51
c CPU time: 0.082071
s OPTIMUM FOUND


rcpsp/heur_output_or_constraints/Log=2/heurj60.txt
encoding rcpsp/j60.sm/j6019_5.sm nv: 157740 nc: 377386 enctime: 4.15
encoding rcpsp/j60.sm/j6019_5.sm nv: 31548 nc: 73522 enctime: 0.48
c File: j6019_5.smnaiveor2.wcnf
c optimal
c final solution cost: 65
c CPU time: 1.004015
s OPTIMUM FOUND

c File: j6019_5.smor2.wcnf
c optimal
c final solution cost: 65
c CPU time: 0.079088
s OPTIMUM FOUND


rcpsp/heur_output_or_constraints/Log=2/heurj60.txt
encoding rcpsp/j60.sm/j6019_6.sm nv: 168756 nc: 405310 enctime: 4.46
encoding rcpsp/j60.sm/j6019_6.sm nv: 29520 nc: 68823 enctime: 0.46
c File: j6019_6.smnaiveor2.wcnf
c optimal
c final solution cost: 59
c CPU time: 1.074237
s OPTIMUM FOUND

c File: j6019_6.smor2.wcnf
c optimal
c final solution cost: 59
c CPU time: 0.067296
s OPTIMUM FOUND


rcpsp/heur_output_or_constraints/Log=2/heurj60.txt
encoding rcpsp/j60.sm/j6019_7.sm nv: 175380 nc: 399156 enctime: 4.07
encoding rcpsp/j60.sm/j6019_7.sm nv: 31635 nc: 70226 enctime: 0.47
c File: j6019_7.smnaiveor2.wcnf
c optimal
c final solution cost: 49
c CPU time: 0.943370
s OPTIMUM FOUND

c File: j6019_7.smor2.wcnf
c optimal
c final solution cost: 49
c CPU time: 0.071024
s OPTIMUM FOUND


rcpsp/heur_output_or_constraints/Log=2/heurj60.txt
encoding rcpsp/j60.sm/j6019_8.sm nv: 154380 nc: 369799 enctime: 4.14
encoding rcpsp/j60.sm/j6019_8.sm nv: 29760 nc: 69371 enctime: 0.45
c File: j6019_8.smnaiveor2.wcnf
c optimal
c final solution cost: 53
c CPU time: 1.171991
s OPTIMUM FOUND

c File: j6019_8.smor2.wcnf
c optimal
c final solution cost: 53
c CPU time: 0.084338
s OPTIMUM FOUND


rcpsp/heur_output_or_constraints/Log=2/heurj60.txt
encoding rcpsp/j60.sm/j6019_9.sm nv: 177500 nc: 423289 enctime: 4.71
encoding rcpsp/j60.sm/j6019_9.sm nv: 36500 nc: 84889 enctime: 0.55
c File: j6019_9.smnaiveor2.wcnf
c optimal
c final solution cost: 63
c CPU time: 1.147644
s OPTIMUM FOUND

c File: j6019_9.smor2.wcnf
c optimal
c final solution cost: 63
c CPU time: 0.091474
s OPTIMUM FOUND


rcpsp/heur_output_or_constraints/Log=2/heurj60.txt
encoding rcpsp/j60.sm/j601_9.sm nv: 128625 nc: 327159 enctime: 3.66
encoding rcpsp/j60.sm/j601_9.sm nv: 34125 nc: 84987 enctime: 0.55
c File: j601_9.smnaiveor2.wcnf
c optimal
c final solution cost: 73
c CPU time: 1.085376
s OPTIMUM FOUND

c File: j601_9.smor2.wcnf
c optimal
c final solution cost: 73
c CPU time: 0.232870
s OPTIMUM FOUND


rcpsp/heur_output_or_constraints/Log=2/heurj60.txt
encoding rcpsp/j60.sm/j6020_10.sm nv: 181485 nc: 417852 enctime: 4.46
encoding rcpsp/j60.sm/j6020_10.sm nv: 24975 nc: 55482 enctime: 0.24
c File: j6020_10.smnaiveor2.wcnf
c optimal
c final solution cost: 43
c CPU time: 1.240977
s OPTIMUM FOUND

c File: j6020_10.smor2.wcnf
c optimal
c final solution cost: 43
c CPU time: 0.062931
s OPTIMUM FOUND


rcpsp/heur_output_or_constraints/Log=2/heurj60.txt
encoding rcpsp/j60.sm/j6020_1.sm nv: 205800 nc: 468786 enctime: 4.91
encoding rcpsp/j60.sm/j6020_1.sm nv: 32400 nc: 71700 enctime: 0.47
c File: j6020_1.smnaiveor2.wcnf
c optimal
c final solution cost: 53
c CPU time: 1.103026
s OPTIMUM FOUND

c File: j6020_1.smor2.wcnf
c optimal
c final solution cost: 53
c CPU time: 0.063635
s OPTIMUM FOUND


rcpsp/heur_output_or_constraints/Log=2/heurj60.txt
encoding rcpsp/j60.sm/j6020_2.sm nv: 136697 nc: 315427 enctime: 3.32
encoding rcpsp/j60.sm/j6020_2.sm nv: 25542 nc: 57397 enctime: 0.25
c File: j6020_2.smnaiveor2.wcnf
c optimal
c final solution cost: 53
c CPU time: 0.781643
s OPTIMUM FOUND

c File: j6020_2.smor2.wcnf
c optimal
c final solution cost: 53
c CPU time: 0.053563
s OPTIMUM FOUND


rcpsp/heur_output_or_constraints/Log=2/heurj60.txt
encoding rcpsp/j60.sm/j6020_3.sm nv: 226501 nc: 514838 enctime: 5.36
encoding rcpsp/j60.sm/j6020_3.sm nv: 44781 nc: 99598 enctime: 0.64
c File: j6020_3.smnaiveor2.wcnf
c optimal
c final solution cost: 68
c CPU time: 1.189046
s OPTIMUM FOUND

c File: j6020_3.smor2.wcnf
c optimal
c final solution cost: 68
c CPU time: 0.094591
s OPTIMUM FOUND


rcpsp/heur_output_or_constraints/Log=2/heurj60.txt
encoding rcpsp/j60.sm/j6020_4.sm nv: 221028 nc: 494853 enctime: 5.14
encoding rcpsp/j60.sm/j6020_4.sm nv: 32600 nc: 70890 enctime: 0.31
c File: j6020_4.smnaiveor2.wcnf
c optimal
c final solution cost: 45
c CPU time: 1.107925
s OPTIMUM FOUND

c File: j6020_4.smor2.wcnf
c optimal
c final solution cost: 45
c CPU time: 0.065667
s OPTIMUM FOUND


rcpsp/heur_output_or_constraints/Log=2/heurj60.txt
encoding rcpsp/j60.sm/j6020_5.sm nv: 187824 nc: 438111 enctime: 4.79
encoding rcpsp/j60.sm/j6020_5.sm nv: 36036 nc: 81993 enctime: 0.37
c File: j6020_5.smnaiveor2.wcnf
c optimal
c final solution cost: 65
c CPU time: 1.084623
s OPTIMUM FOUND

c File: j6020_5.smor2.wcnf
c optimal
c final solution cost: 65
c CPU time: 0.083414
s OPTIMUM FOUND


rcpsp/heur_output_or_constraints/Log=2/heurj60.txt
encoding rcpsp/j60.sm/j6020_6.sm nv: 210858 nc: 481530 enctime: 5.06
encoding rcpsp/j60.sm/j6020_6.sm nv: 32966 nc: 73122 enctime: 0.32
c File: j6020_6.smnaiveor2.wcnf
c optimal
c final solution cost: 50
c CPU time: 1.101882
s OPTIMUM FOUND

c File: j6020_6.smor2.wcnf
c optimal
c final solution cost: 50
c CPU time: 0.072262
s OPTIMUM FOUND


rcpsp/heur_output_or_constraints/Log=2/heurj60.txt
encoding rcpsp/j60.sm/j6020_7.sm nv: 209902 nc: 476357 enctime: 4.81
encoding rcpsp/j60.sm/j6020_7.sm nv: 31900 nc: 70412 enctime: 0.47
c File: j6020_7.smnaiveor2.wcnf
c optimal
c final solution cost: 47
c CPU time: 1.071052
s OPTIMUM FOUND

c File: j6020_7.smor2.wcnf
c optimal
c final solution cost: 47
c CPU time: 0.067870
s OPTIMUM FOUND


rcpsp/heur_output_or_constraints/Log=2/heurj60.txt
encoding rcpsp/j60.sm/j6020_8.sm nv: 178856 nc: 404149 enctime: 4.23
encoding rcpsp/j60.sm/j6020_8.sm nv: 28300 nc: 62073 enctime: 0.27
c File: j6020_8.smnaiveor2.wcnf
c optimal
c final solution cost: 47
c CPU time: 0.988600
s OPTIMUM FOUND

c File: j6020_8.smor2.wcnf
c optimal
c final solution cost: 47
c CPU time: 0.070774
s OPTIMUM FOUND


rcpsp/heur_output_or_constraints/Log=2/heurj60.txt
encoding rcpsp/j60.sm/j6020_9.sm nv: 180411 nc: 436400 enctime: 5.06
encoding rcpsp/j60.sm/j6020_9.sm nv: 31808 nc: 74610 enctime: 0.33
c File: j6020_9.smnaiveor2.wcnf
c optimal
c final solution cost: 63
c CPU time: 1.431088
s OPTIMUM FOUND

c File: j6020_9.smor2.wcnf
c optimal
c final solution cost: 63
c CPU time: 0.080387
s OPTIMUM FOUND


